p cnf 23 55
a 20 7 0
e 1 2 3 4 5 6 8 9 10 11 12 13 14 15 16 17 18 19 21 22 23 0
-4 2 0
-4 -3 0
-2 3 4 0
4 3 -5 0
-4 -3 -5 0
4 -3 5 0
-4 3 5 0
-6 1 0
-6 -5 0
-1 5 6 0
-9 -7 0
-9 8 0
7 -8 9 0
-11 9 0
-11 10 0
-9 -10 11 0
-13 -12 0
-13 12 0
14 -9 0
14 13 0
9 -13 -14 0
-16 15 0
-16 15 0
-15 16 0
-17 -14 0
-17 16 0
14 -16 17 0
-18 -11 0
-18 17 0
11 -17 18 0
6 18 -19 0
-6 -18 -19 0
6 -18 19 0
-6 18 19 0
-20 -10 0
-20 -13 0
10 13 20 0
-7 -15 -21 0
7 15 -21 0
-7 15 21 0
7 -15 21 0
20 21 -22 0
-20 -21 -22 0
20 -21 22 0
-20 21 22 0
-19 22 -23 0
19 -22 -23 0
-19 -22 23 0
19 22 23 0
-2 -12 6 15 7 0
21 -9 -16 0
8 -20 19 0
-17 8 -18 0
8 -23 7 4 0
23 0
